28294
1 1 0 0 0 1 0 1 1 0 0 1 0 1 1 0 0 1 0 0 1 0 0 0 1 0 0 0 0 0 
20 0 14 8 20 5 8 24 1 7 5 14 20 13 7 7 14 17 24 17 14 11 24 11 24 14 14 5 11 24 0 7 20 0 8 20 24 7 14 8 17 14 24 1 7 8 5 14 0 14 8 1 14 0 20 8 14 5 0 14 7 7 20 11 7 24 5 17 11 17 13 13 0 0 7 8 5 14 1 11 20 0 1 17 17 17 11 11 8 5 11 17 17 17 0 24 17 1 24 20 13 5 7 11 8 24 24 11 8 8 14 1 20 17 0 17 5 24 24 5 0 20 11 20 8 5 7 1 0 11 0 5 5 1 14 14 5 24 13 17 11 20 13 8 20 0 11 5 0 11 
